param n := 50;
param c := 150;
param w := 
1 150
2 149
3 147
4 146
5 145
6 145
7 143
8 142
9 140
10 137
11 136
12 135
13 135
14 135
15 130
16 129
17 124
18 122
19 120
20 116
21 115
22 107
23 107
24 102
25 98
26 97
27 93
28 91
29 89
30 85
31 81
32 77
33 73
34 72
35 69
36 66
37 50
38 42
39 37
40 30
41 13
42 12
43 12
44 11
45 11
46 11
47 11
48 7
49 4
50 4
;